data/lp_files/q3/55_4.lp
\ Model foo
\ LP format - for model browsing. Use MPS format to capture full model detail.
Minimize
  z
Subject To
 allocateEach[1]: x[1,1] + x[2,1] + x[3,1] = 1
 allocateEach[2]: x[1,2] + x[2,2] + x[3,2] = 1
 allocateEach[3]: x[1,3] + x[2,3] + x[3,3] = 1
 allocateEach[4]: x[1,4] + x[2,4] + x[3,4] = 1
 allocateEach[5]: x[1,5] + x[2,5] + x[3,5] = 1
 allocateEach[6]: x[1,6] + x[2,6] + x[3,6] = 1
 allocateEach[7]: x[1,7] + x[2,7] + x[3,7] = 1
 allocateEach[8]: x[1,8] + x[2,8] + x[3,8] = 1
 allocateEach[9]: x[1,9] + x[2,9] + x[3,9] = 1
 allocateEach[10]: x[1,10] + x[2,10] + x[3,10] = 1
 allocateEach[11]: x[1,11] + x[2,11] + x[3,11] = 1
 allocateEach[12]: x[1,12] + x[2,12] + x[3,12] = 1
 allocateEach[13]: x[1,13] + x[2,13] + x[3,13] = 1
 allocateEach[14]: x[1,14] + x[2,14] + x[3,14] = 1
 allocateEach[15]: x[1,15] + x[2,15] + x[3,15] = 1
 allocateAllCash: cashProportion[1] + cashProportion[2] + cashProportion[3]
   = 1
 findWorstP[1,2]: z + 0.0302315738557349 cashProportion[1]
   - 0.0302315738557349 cashProportion[2] + 0.0282241973517141 x[1,1]
   + 0.0388173408307637 x[1,2] + 0.0389261744966443 x[1,3]
   + 0.0803676159380857 x[1,4] + 0.0599552572706935 x[1,5]
   + 0.0815164157446037 x[1,6] + 0.0704153818247778 x[1,7]
   + 0.1097527057258601 x[1,8] + 0.0086220448636556 x[1,9]
   + 0.0780216458068807 x[1,10] + 0.0687949694661104 x[1,11]
   + 0.1057016748291916 x[1,12] + 0.1195235503960336 x[1,13]
   + 0.00603422214160469 x[1,14] + 0.0750952294576456 x[1,15]
   - 0.0282241973517141 x[2,1] - 0.0388173408307637 x[2,2]
   - 0.0389261744966443 x[2,3] - 0.0803676159380857 x[2,4]
   - 0.0599552572706935 x[2,5] - 0.0815164157446037 x[2,6]
   - 0.0704153818247778 x[2,7] - 0.1097527057258601 x[2,8]
   - 0.0086220448636556 x[2,9] - 0.0780216458068807 x[2,10]
   - 0.0687949694661104 x[2,11] - 0.1057016748291916 x[2,12]
   - 0.1195235503960336 x[2,13] - 0.00603422214160469 x[2,14]
   - 0.0750952294576456 x[2,15] >= 0
 findWorstP[1,3]: z + 0.0302315738557349 cashProportion[1]
   - 0.0302315738557349 cashProportion[3] + 0.0282241973517141 x[1,1]
   + 0.0388173408307637 x[1,2] + 0.0389261744966443 x[1,3]
   + 0.0803676159380857 x[1,4] + 0.0599552572706935 x[1,5]
   + 0.0815164157446037 x[1,6] + 0.0704153818247778 x[1,7]
   + 0.1097527057258601 x[1,8] + 0.0086220448636556 x[1,9]
   + 0.0780216458068807 x[1,10] + 0.0687949694661104 x[1,11]
   + 0.1057016748291916 x[1,12] + 0.1195235503960336 x[1,13]
   + 0.00603422214160469 x[1,14] + 0.0750952294576456 x[1,15]
   - 0.0282241973517141 x[3,1] - 0.0388173408307637 x[3,2]
   - 0.0389261744966443 x[3,3] - 0.0803676159380857 x[3,4]
   - 0.0599552572706935 x[3,5] - 0.0815164157446037 x[3,6]
   - 0.0704153818247778 x[3,7] - 0.1097527057258601 x[3,8]
   - 0.0086220448636556 x[3,9] - 0.0780216458068807 x[3,10]
   - 0.0687949694661104 x[3,11] - 0.1057016748291916 x[3,12]
   - 0.1195235503960336 x[3,13] - 0.00603422214160469 x[3,14]
   - 0.0750952294576456 x[3,15] >= 0
 findWorstP[2,1]: z - 0.0315871932883532 cashProportion[1]
   + 0.0315871932883532 cashProportion[2] - 0.0461046673236803 x[1,1]
   - 0.0681525282389508 x[1,2] - 0.1070300457382559 x[1,3]
   - 0.0912238142167639 x[1,4] - 0.0330654739342481 x[1,5]
   - 0.0181436838248301 x[1,6] - 0.0500972885553281 x[1,7]
   - 0.0527127081596038 x[1,8] - 0.0602809996714932 x[1,9]
   - 0.1097086397291082 x[1,10] - 0.0546332095115356 x[1,11]
   - 0.00732822884289794 x[1,12] - 0.1105551765092361 x[1,13]
   - 0.0674702448639224 x[1,14] - 0.0919060975917924 x[1,15]
   + 0.0461046673236803 x[2,1] + 0.0681525282389508 x[2,2]
   + 0.1070300457382559 x[2,3] + 0.0912238142167639 x[2,4]
   + 0.0330654739342481 x[2,5] + 0.0181436838248301 x[2,6]
   + 0.0500972885553281 x[2,7] + 0.0527127081596038 x[2,8]
   + 0.0602809996714932 x[2,9] + 0.1097086397291082 x[2,10]
   + 0.0546332095115356 x[2,11] + 0.00732822884289794 x[2,12]
   + 0.1105551765092361 x[2,13] + 0.0674702448639224 x[2,14]
   + 0.0919060975917924 x[2,15] >= 0
 findWorstP[2,3]: z + 0.0315871932883532 cashProportion[2]
   - 0.0315871932883532 cashProportion[3] + 0.0461046673236803 x[2,1]
   + 0.0681525282389508 x[2,2] + 0.1070300457382559 x[2,3]
   + 0.0912238142167639 x[2,4] + 0.0330654739342481 x[2,5]
   + 0.0181436838248301 x[2,6] + 0.0500972885553281 x[2,7]
   + 0.0527127081596038 x[2,8] + 0.0602809996714932 x[2,9]
   + 0.1097086397291082 x[2,10] + 0.0546332095115356 x[2,11]
   + 0.00732822884289794 x[2,12] + 0.1105551765092361 x[2,13]
   + 0.0674702448639224 x[2,14] + 0.0919060975917924 x[2,15]
   - 0.0461046673236803 x[3,1] - 0.0681525282389508 x[3,2]
   - 0.1070300457382559 x[3,3] - 0.0912238142167639 x[3,4]
   - 0.0330654739342481 x[3,5] - 0.0181436838248301 x[3,6]
   - 0.0500972885553281 x[3,7] - 0.0527127081596038 x[3,8]
   - 0.0602809996714932 x[3,9] - 0.1097086397291082 x[3,10]
   - 0.0546332095115356 x[3,11] - 0.00732822884289794 x[3,12]
   - 0.1105551765092361 x[3,13] - 0.0674702448639224 x[3,14]
   - 0.0919060975917924 x[3,15] >= 0
 findWorstP[3,1]: z - 0.0333462272078537 cashProportion[1]
   + 0.0333462272078537 cashProportion[3] - 0.0243427458617332 x[1,1]
   - 0.0453908844753305 x[1,2] - 0.0513531899000947 x[1,3]
   - 0.0380947299622521 x[1,4] - 0.0048552106814635 x[1,5]
   - 0.071561003588054 x[1,6] - 0.1299302396926812 x[1,7]
   - 0.0825519200757626 x[1,8] - 0.1090288244787985 x[1,9]
   - 0.087767270011071 x[1,10] - 0.0548078590388284 x[1,11]
   - 0.1280895279508077 x[1,12] - 0.00957703645409558 x[1,13]
   - 0.1272625415160529 x[1,14] - 0.00204078910512065 x[1,15]
   + 0.0243427458617332 x[3,1] + 0.0453908844753305 x[3,2]
   + 0.0513531899000947 x[3,3] + 0.0380947299622521 x[3,4]
   + 0.0048552106814635 x[3,5] + 0.071561003588054 x[3,6]
   + 0.1299302396926812 x[3,7] + 0.0825519200757626 x[3,8]
   + 0.1090288244787985 x[3,9] + 0.087767270011071 x[3,10]
   + 0.0548078590388284 x[3,11] + 0.1280895279508077 x[3,12]
   + 0.00957703645409558 x[3,13] + 0.1272625415160529 x[3,14]
   + 0.00204078910512065 x[3,15] >= 0
 findWorstP[3,2]: z - 0.0333462272078537 cashProportion[2]
   + 0.0333462272078537 cashProportion[3] - 0.0243427458617332 x[2,1]
   - 0.0453908844753305 x[2,2] - 0.0513531899000947 x[2,3]
   - 0.0380947299622521 x[2,4] - 0.0048552106814635 x[2,5]
   - 0.071561003588054 x[2,6] - 0.1299302396926812 x[2,7]
   - 0.0825519200757626 x[2,8] - 0.1090288244787985 x[2,9]
   - 0.087767270011071 x[2,10] - 0.0548078590388284 x[2,11]
   - 0.1280895279508077 x[2,12] - 0.00957703645409558 x[2,13]
   - 0.1272625415160529 x[2,14] - 0.00204078910512065 x[2,15]
   + 0.0243427458617332 x[3,1] + 0.0453908844753305 x[3,2]
   + 0.0513531899000947 x[3,3] + 0.0380947299622521 x[3,4]
   + 0.0048552106814635 x[3,5] + 0.071561003588054 x[3,6]
   + 0.1299302396926812 x[3,7] + 0.0825519200757626 x[3,8]
   + 0.1090288244787985 x[3,9] + 0.087767270011071 x[3,10]
   + 0.0548078590388284 x[3,11] + 0.1280895279508077 x[3,12]
   + 0.00957703645409558 x[3,13] + 0.1272625415160529 x[3,14]
   + 0.00204078910512065 x[3,15] >= 0
Bounds
 z <= 1
 -infinity <= cashProportion[1] <= 1
 -infinity <= cashProportion[2] <= 1
 -infinity <= cashProportion[3] <= 1
Binaries
 x[1,1] x[1,2] x[1,3] x[1,4] x[1,5] x[1,6] x[1,7] x[1,8] x[1,9] x[1,10]
 x[1,11] x[1,12] x[1,13] x[1,14] x[1,15] x[2,1] x[2,2] x[2,3] x[2,4] x[2,5]
 x[2,6] x[2,7] x[2,8] x[2,9] x[2,10] x[2,11] x[2,12] x[2,13] x[2,14]
 x[2,15] x[3,1] x[3,2] x[3,3] x[3,4] x[3,5] x[3,6] x[3,7] x[3,8] x[3,9]
 x[3,10] x[3,11] x[3,12] x[3,13] x[3,14] x[3,15]
End
