data/mps_files/pEFS/55_4.mps
NAME foo
ROWS
 N  OBJ
 E  allocateEach[1]
 E  allocateEach[2]
 E  allocateEach[3]
 E  allocateEach[4]
 E  allocateEach[5]
 E  allocateEach[6]
 E  allocateEach[7]
 E  allocateEach[8]
 E  allocateEach[9]
 E  allocateEach[10]
 E  allocateEach[11]
 E  allocateEach[12]
 E  allocateEach[13]
 E  allocateEach[14]
 E  allocateEach[15]
 E  allocateAllCash
 G  findWorstP[1,2]
 G  findWorstP[1,3]
 G  findWorstP[2,1]
 G  findWorstP[2,3]
 G  findWorstP[3,1]
 G  findWorstP[3,2]
COLUMNS
    z         OBJ       1
    z         findWorstP[1,2]  1
    z         findWorstP[1,3]  1
    z         findWorstP[2,1]  1
    z         findWorstP[2,3]  1
    z         findWorstP[3,1]  1
    z         findWorstP[3,2]  1
    cashProportion[1]  allocateAllCash  1
    cashProportion[1]  findWorstP[1,2]  3.0231573855734929e-02
    cashProportion[1]  findWorstP[1,3]  3.0231573855734929e-02
    cashProportion[1]  findWorstP[2,1]  -3.1587193288353167e-02
    cashProportion[1]  findWorstP[3,1]  -3.3346227207853706e-02
    cashProportion[2]  allocateAllCash  1
    cashProportion[2]  findWorstP[1,2]  -3.0231573855734929e-02
    cashProportion[2]  findWorstP[2,1]  3.1587193288353167e-02
    cashProportion[2]  findWorstP[2,3]  3.1587193288353167e-02
    cashProportion[2]  findWorstP[3,2]  -3.3346227207853706e-02
    cashProportion[3]  allocateAllCash  1
    cashProportion[3]  findWorstP[1,3]  -3.0231573855734929e-02
    cashProportion[3]  findWorstP[2,3]  -3.1587193288353167e-02
    cashProportion[3]  findWorstP[3,1]  3.3346227207853706e-02
    cashProportion[3]  findWorstP[3,2]  3.3346227207853706e-02
    MARKER    'MARKER'                 'INTORG'
    x[1,1]    allocateEach[1]  1
    x[1,1]    findWorstP[1,2]  2.8224197351714130e-02
    x[1,1]    findWorstP[1,3]  2.8224197351714130e-02
    x[1,1]    findWorstP[2,1]  -4.6104667323680286e-02
    x[1,1]    findWorstP[3,1]  -2.4342745861733205e-02
    x[1,2]    allocateEach[2]  1
    x[1,2]    findWorstP[1,2]  3.8817340830763651e-02
    x[1,2]    findWorstP[1,3]  3.8817340830763651e-02
    x[1,2]    findWorstP[2,1]  -0.0681525282389508
    x[1,2]    findWorstP[3,1]  -4.5390884475330462e-02
    x[1,3]    allocateEach[3]  1
    x[1,3]    findWorstP[1,2]  3.8926174496644296e-02
    x[1,3]    findWorstP[1,3]  3.8926174496644296e-02
    x[1,3]    findWorstP[2,1]  -1.0703004573825586e-01
    x[1,3]    findWorstP[3,1]  -5.1353189900094708e-02
    x[1,4]    allocateEach[4]  1
    x[1,4]    findWorstP[1,2]  8.0367615938085724e-02
    x[1,4]    findWorstP[1,3]  8.0367615938085724e-02
    x[1,4]    findWorstP[2,1]  -9.1223814216763940e-02
    x[1,4]    findWorstP[3,1]  -3.8094729962252077e-02
    x[1,5]    allocateEach[5]  1
    x[1,5]    findWorstP[1,2]  5.9955257270693514e-02
    x[1,5]    findWorstP[1,3]  5.9955257270693514e-02
    x[1,5]    findWorstP[2,1]  -3.3065473934248094e-02
    x[1,5]    findWorstP[3,1]  -0.0048552106814635
    x[1,6]    allocateEach[6]  1
    x[1,6]    findWorstP[1,2]  8.1516415744603665e-02
    x[1,6]    findWorstP[1,3]  8.1516415744603665e-02
    x[1,6]    findWorstP[2,1]  -1.8143683824830059e-02
    x[1,6]    findWorstP[3,1]  -7.1561003588054048e-02
    x[1,7]    allocateEach[7]  1
    x[1,7]    findWorstP[1,2]  0.0704153818247778
    x[1,7]    findWorstP[1,3]  0.0704153818247778
    x[1,7]    findWorstP[2,1]  -5.0097288555328127e-02
    x[1,7]    findWorstP[3,1]  -1.2993023969268117e-01
    x[1,8]    allocateEach[8]  1
    x[1,8]    findWorstP[1,2]  1.0975270572586009e-01
    x[1,8]    findWorstP[1,3]  1.0975270572586009e-01
    x[1,8]    findWorstP[2,1]  -5.2712708159603765e-02
    x[1,8]    findWorstP[3,1]  -8.2551920075762633e-02
    x[1,9]    allocateEach[9]  1
    x[1,9]    findWorstP[1,2]  8.6220448636556025e-03
    x[1,9]    findWorstP[1,3]  8.6220448636556025e-03
    x[1,9]    findWorstP[2,1]  -6.0280999671493189e-02
    x[1,9]    findWorstP[3,1]  -1.0902882447879848e-01
    x[1,10]   allocateEach[10]  1
    x[1,10]   findWorstP[1,2]  0.0780216458068807
    x[1,10]   findWorstP[1,3]  0.0780216458068807
    x[1,10]   findWorstP[2,1]  -1.0970863972910821e-01
    x[1,10]   findWorstP[3,1]  -8.7767270011070958e-02
    x[1,11]   allocateEach[11]  1
    x[1,11]   findWorstP[1,2]  0.0687949694661104
    x[1,11]   findWorstP[1,3]  0.0687949694661104
    x[1,11]   findWorstP[2,1]  -5.4633209511535642e-02
    x[1,11]   findWorstP[3,1]  -5.4807859038828351e-02
    x[1,12]   allocateEach[12]  1
    x[1,12]   findWorstP[1,2]  1.0570167482919160e-01
    x[1,12]   findWorstP[1,3]  1.0570167482919160e-01
    x[1,12]   findWorstP[2,1]  -7.3282288428979355e-03
    x[1,12]   findWorstP[3,1]  -1.2808952795080766e-01
    x[1,13]   allocateEach[13]  1
    x[1,13]   findWorstP[1,2]  1.1952355039603360e-01
    x[1,13]   findWorstP[1,3]  1.1952355039603360e-01
    x[1,13]   findWorstP[2,1]  -1.1055517650923609e-01
    x[1,13]   findWorstP[3,1]  -9.5770364540955846e-03
    x[1,14]   allocateEach[14]  1
    x[1,14]   findWorstP[1,2]  6.0342221416046921e-03
    x[1,14]   findWorstP[1,3]  6.0342221416046921e-03
    x[1,14]   findWorstP[2,1]  -6.7470244863922363e-02
    x[1,14]   findWorstP[3,1]  -1.2726254151605287e-01
    x[1,15]   allocateEach[15]  1
    x[1,15]   findWorstP[1,2]  7.5095229457645560e-02
    x[1,15]   findWorstP[1,3]  7.5095229457645560e-02
    x[1,15]   findWorstP[2,1]  -9.1906097591792385e-02
    x[1,15]   findWorstP[3,1]  -2.0407891051206469e-03
    x[2,1]    allocateEach[1]  1
    x[2,1]    findWorstP[1,2]  -2.8224197351714130e-02
    x[2,1]    findWorstP[2,1]  4.6104667323680286e-02
    x[2,1]    findWorstP[2,3]  4.6104667323680286e-02
    x[2,1]    findWorstP[3,2]  -2.4342745861733205e-02
    x[2,2]    allocateEach[2]  1
    x[2,2]    findWorstP[1,2]  -3.8817340830763651e-02
    x[2,2]    findWorstP[2,1]  0.0681525282389508
    x[2,2]    findWorstP[2,3]  0.0681525282389508
    x[2,2]    findWorstP[3,2]  -4.5390884475330462e-02
    x[2,3]    allocateEach[3]  1
    x[2,3]    findWorstP[1,2]  -3.8926174496644296e-02
    x[2,3]    findWorstP[2,1]  1.0703004573825586e-01
    x[2,3]    findWorstP[2,3]  1.0703004573825586e-01
    x[2,3]    findWorstP[3,2]  -5.1353189900094708e-02
    x[2,4]    allocateEach[4]  1
    x[2,4]    findWorstP[1,2]  -8.0367615938085724e-02
    x[2,4]    findWorstP[2,1]  9.1223814216763940e-02
    x[2,4]    findWorstP[2,3]  9.1223814216763940e-02
    x[2,4]    findWorstP[3,2]  -3.8094729962252077e-02
    x[2,5]    allocateEach[5]  1
    x[2,5]    findWorstP[1,2]  -5.9955257270693514e-02
    x[2,5]    findWorstP[2,1]  3.3065473934248094e-02
    x[2,5]    findWorstP[2,3]  3.3065473934248094e-02
    x[2,5]    findWorstP[3,2]  -0.0048552106814635
    x[2,6]    allocateEach[6]  1
    x[2,6]    findWorstP[1,2]  -8.1516415744603665e-02
    x[2,6]    findWorstP[2,1]  1.8143683824830059e-02
    x[2,6]    findWorstP[2,3]  1.8143683824830059e-02
    x[2,6]    findWorstP[3,2]  -7.1561003588054048e-02
    x[2,7]    allocateEach[7]  1
    x[2,7]    findWorstP[1,2]  -0.0704153818247778
    x[2,7]    findWorstP[2,1]  5.0097288555328127e-02
    x[2,7]    findWorstP[2,3]  5.0097288555328127e-02
    x[2,7]    findWorstP[3,2]  -1.2993023969268117e-01
    x[2,8]    allocateEach[8]  1
    x[2,8]    findWorstP[1,2]  -1.0975270572586009e-01
    x[2,8]    findWorstP[2,1]  5.2712708159603765e-02
    x[2,8]    findWorstP[2,3]  5.2712708159603765e-02
    x[2,8]    findWorstP[3,2]  -8.2551920075762633e-02
    x[2,9]    allocateEach[9]  1
    x[2,9]    findWorstP[1,2]  -8.6220448636556025e-03
    x[2,9]    findWorstP[2,1]  6.0280999671493189e-02
    x[2,9]    findWorstP[2,3]  6.0280999671493189e-02
    x[2,9]    findWorstP[3,2]  -1.0902882447879848e-01
    x[2,10]   allocateEach[10]  1
    x[2,10]   findWorstP[1,2]  -0.0780216458068807
    x[2,10]   findWorstP[2,1]  1.0970863972910821e-01
    x[2,10]   findWorstP[2,3]  1.0970863972910821e-01
    x[2,10]   findWorstP[3,2]  -8.7767270011070958e-02
    x[2,11]   allocateEach[11]  1
    x[2,11]   findWorstP[1,2]  -0.0687949694661104
    x[2,11]   findWorstP[2,1]  5.4633209511535642e-02
    x[2,11]   findWorstP[2,3]  5.4633209511535642e-02
    x[2,11]   findWorstP[3,2]  -5.4807859038828351e-02
    x[2,12]   allocateEach[12]  1
    x[2,12]   findWorstP[1,2]  -1.0570167482919160e-01
    x[2,12]   findWorstP[2,1]  7.3282288428979355e-03
    x[2,12]   findWorstP[2,3]  7.3282288428979355e-03
    x[2,12]   findWorstP[3,2]  -1.2808952795080766e-01
    x[2,13]   allocateEach[13]  1
    x[2,13]   findWorstP[1,2]  -1.1952355039603360e-01
    x[2,13]   findWorstP[2,1]  1.1055517650923609e-01
    x[2,13]   findWorstP[2,3]  1.1055517650923609e-01
    x[2,13]   findWorstP[3,2]  -9.5770364540955846e-03
    x[2,14]   allocateEach[14]  1
    x[2,14]   findWorstP[1,2]  -6.0342221416046921e-03
    x[2,14]   findWorstP[2,1]  6.7470244863922363e-02
    x[2,14]   findWorstP[2,3]  6.7470244863922363e-02
    x[2,14]   findWorstP[3,2]  -1.2726254151605287e-01
    x[2,15]   allocateEach[15]  1
    x[2,15]   findWorstP[1,2]  -7.5095229457645560e-02
    x[2,15]   findWorstP[2,1]  9.1906097591792385e-02
    x[2,15]   findWorstP[2,3]  9.1906097591792385e-02
    x[2,15]   findWorstP[3,2]  -2.0407891051206469e-03
    x[3,1]    allocateEach[1]  1
    x[3,1]    findWorstP[1,3]  -2.8224197351714130e-02
    x[3,1]    findWorstP[2,3]  -4.6104667323680286e-02
    x[3,1]    findWorstP[3,1]  2.4342745861733205e-02
    x[3,1]    findWorstP[3,2]  2.4342745861733205e-02
    x[3,2]    allocateEach[2]  1
    x[3,2]    findWorstP[1,3]  -3.8817340830763651e-02
    x[3,2]    findWorstP[2,3]  -0.0681525282389508
    x[3,2]    findWorstP[3,1]  4.5390884475330462e-02
    x[3,2]    findWorstP[3,2]  4.5390884475330462e-02
    x[3,3]    allocateEach[3]  1
    x[3,3]    findWorstP[1,3]  -3.8926174496644296e-02
    x[3,3]    findWorstP[2,3]  -1.0703004573825586e-01
    x[3,3]    findWorstP[3,1]  5.1353189900094708e-02
    x[3,3]    findWorstP[3,2]  5.1353189900094708e-02
    x[3,4]    allocateEach[4]  1
    x[3,4]    findWorstP[1,3]  -8.0367615938085724e-02
    x[3,4]    findWorstP[2,3]  -9.1223814216763940e-02
    x[3,4]    findWorstP[3,1]  3.8094729962252077e-02
    x[3,4]    findWorstP[3,2]  3.8094729962252077e-02
    x[3,5]    allocateEach[5]  1
    x[3,5]    findWorstP[1,3]  -5.9955257270693514e-02
    x[3,5]    findWorstP[2,3]  -3.3065473934248094e-02
    x[3,5]    findWorstP[3,1]  0.0048552106814635
    x[3,5]    findWorstP[3,2]  0.0048552106814635
    x[3,6]    allocateEach[6]  1
    x[3,6]    findWorstP[1,3]  -8.1516415744603665e-02
    x[3,6]    findWorstP[2,3]  -1.8143683824830059e-02
    x[3,6]    findWorstP[3,1]  7.1561003588054048e-02
    x[3,6]    findWorstP[3,2]  7.1561003588054048e-02
    x[3,7]    allocateEach[7]  1
    x[3,7]    findWorstP[1,3]  -0.0704153818247778
    x[3,7]    findWorstP[2,3]  -5.0097288555328127e-02
    x[3,7]    findWorstP[3,1]  1.2993023969268117e-01
    x[3,7]    findWorstP[3,2]  1.2993023969268117e-01
    x[3,8]    allocateEach[8]  1
    x[3,8]    findWorstP[1,3]  -1.0975270572586009e-01
    x[3,8]    findWorstP[2,3]  -5.2712708159603765e-02
    x[3,8]    findWorstP[3,1]  8.2551920075762633e-02
    x[3,8]    findWorstP[3,2]  8.2551920075762633e-02
    x[3,9]    allocateEach[9]  1
    x[3,9]    findWorstP[1,3]  -8.6220448636556025e-03
    x[3,9]    findWorstP[2,3]  -6.0280999671493189e-02
    x[3,9]    findWorstP[3,1]  1.0902882447879848e-01
    x[3,9]    findWorstP[3,2]  1.0902882447879848e-01
    x[3,10]   allocateEach[10]  1
    x[3,10]   findWorstP[1,3]  -0.0780216458068807
    x[3,10]   findWorstP[2,3]  -1.0970863972910821e-01
    x[3,10]   findWorstP[3,1]  8.7767270011070958e-02
    x[3,10]   findWorstP[3,2]  8.7767270011070958e-02
    x[3,11]   allocateEach[11]  1
    x[3,11]   findWorstP[1,3]  -0.0687949694661104
    x[3,11]   findWorstP[2,3]  -5.4633209511535642e-02
    x[3,11]   findWorstP[3,1]  5.4807859038828351e-02
    x[3,11]   findWorstP[3,2]  5.4807859038828351e-02
    x[3,12]   allocateEach[12]  1
    x[3,12]   findWorstP[1,3]  -1.0570167482919160e-01
    x[3,12]   findWorstP[2,3]  -7.3282288428979355e-03
    x[3,12]   findWorstP[3,1]  1.2808952795080766e-01
    x[3,12]   findWorstP[3,2]  1.2808952795080766e-01
    x[3,13]   allocateEach[13]  1
    x[3,13]   findWorstP[1,3]  -1.1952355039603360e-01
    x[3,13]   findWorstP[2,3]  -1.1055517650923609e-01
    x[3,13]   findWorstP[3,1]  9.5770364540955846e-03
    x[3,13]   findWorstP[3,2]  9.5770364540955846e-03
    x[3,14]   allocateEach[14]  1
    x[3,14]   findWorstP[1,3]  -6.0342221416046921e-03
    x[3,14]   findWorstP[2,3]  -6.7470244863922363e-02
    x[3,14]   findWorstP[3,1]  1.2726254151605287e-01
    x[3,14]   findWorstP[3,2]  1.2726254151605287e-01
    x[3,15]   allocateEach[15]  1
    x[3,15]   findWorstP[1,3]  -7.5095229457645560e-02
    x[3,15]   findWorstP[2,3]  -9.1906097591792385e-02
    x[3,15]   findWorstP[3,1]  2.0407891051206469e-03
    x[3,15]   findWorstP[3,2]  2.0407891051206469e-03
    MARKER    'MARKER'                 'INTEND'
RHS
    RHS1      allocateEach[1]  1
    RHS1      allocateEach[2]  1
    RHS1      allocateEach[3]  1
    RHS1      allocateEach[4]  1
    RHS1      allocateEach[5]  1
    RHS1      allocateEach[6]  1
    RHS1      allocateEach[7]  1
    RHS1      allocateEach[8]  1
    RHS1      allocateEach[9]  1
    RHS1      allocateEach[10]  1
    RHS1      allocateEach[11]  1
    RHS1      allocateEach[12]  1
    RHS1      allocateEach[13]  1
    RHS1      allocateEach[14]  1
    RHS1      allocateEach[15]  1
    RHS1      allocateAllCash  1
BOUNDS
 UP BND1      z         1
 MI BND1      cashProportion[1]
 UP BND1      cashProportion[1]  1
 MI BND1      cashProportion[2]
 UP BND1      cashProportion[2]  1
 MI BND1      cashProportion[3]
 UP BND1      cashProportion[3]  1
 BV BND1      x[1,1]  
 BV BND1      x[1,2]  
 BV BND1      x[1,3]  
 BV BND1      x[1,4]  
 BV BND1      x[1,5]  
 BV BND1      x[1,6]  
 BV BND1      x[1,7]  
 BV BND1      x[1,8]  
 BV BND1      x[1,9]  
 BV BND1      x[1,10] 
 BV BND1      x[1,11] 
 BV BND1      x[1,12] 
 BV BND1      x[1,13] 
 BV BND1      x[1,14] 
 BV BND1      x[1,15] 
 BV BND1      x[2,1]  
 BV BND1      x[2,2]  
 BV BND1      x[2,3]  
 BV BND1      x[2,4]  
 BV BND1      x[2,5]  
 BV BND1      x[2,6]  
 BV BND1      x[2,7]  
 BV BND1      x[2,8]  
 BV BND1      x[2,9]  
 BV BND1      x[2,10] 
 BV BND1      x[2,11] 
 BV BND1      x[2,12] 
 BV BND1      x[2,13] 
 BV BND1      x[2,14] 
 BV BND1      x[2,15] 
 BV BND1      x[3,1]  
 BV BND1      x[3,2]  
 BV BND1      x[3,3]  
 BV BND1      x[3,4]  
 BV BND1      x[3,5]  
 BV BND1      x[3,6]  
 BV BND1      x[3,7]  
 BV BND1      x[3,8]  
 BV BND1      x[3,9]  
 BV BND1      x[3,10] 
 BV BND1      x[3,11] 
 BV BND1      x[3,12] 
 BV BND1      x[3,13] 
 BV BND1      x[3,14] 
 BV BND1      x[3,15] 
ENDATA
